p edge 34 263
e 1 3
e 1 4
e 1 6
e 1 7
e 1 8
e 1 9
e 1 10
e 1 14
e 1 21
e 1 23
e 1 28
e 1 29
e 1 30
e 1 31
e 1 32
e 1 34
e 2 8
e 2 9
e 2 10
e 2 12
e 2 13
e 2 14
e 2 16
e 2 17
e 2 24
e 2 25
e 2 27
e 2 29
e 2 32
e 2 33
e 3 4
e 3 5
e 3 14
e 3 15
e 3 19
e 3 23
e 3 25
e 3 30
e 3 31
e 3 32
e 3 33
e 3 34
e 4 5
e 4 7
e 4 8
e 4 10
e 4 14
e 4 16
e 4 17
e 4 18
e 4 21
e 4 24
e 4 26
e 4 30
e 4 31
e 4 34
e 5 10
e 5 12
e 5 15
e 5 17
e 5 18
e 5 22
e 5 27
e 5 29
e 5 30
e 5 32
e 5 33
e 6 7
e 6 9
e 6 10
e 6 12
e 6 13
e 6 14
e 6 17
e 6 19
e 6 20
e 6 27
e 6 28
e 6 29
e 6 32
e 7 9
e 7 10
e 7 13
e 7 15
e 7 16
e 7 17
e 7 20
e 7 25
e 7 26
e 7 28
e 7 29
e 7 30
e 7 32
e 7 33
e 7 34
e 8 9
e 8 10
e 8 12
e 8 18
e 8 19
e 8 20
e 8 21
e 8 26
e 8 28
e 8 29
e 8 30
e 8 32
e 8 33
e 9 10
e 9 15
e 9 16
e 9 18
e 9 22
e 9 23
e 9 25
e 9 26
e 9 27
e 9 28
e 9 29
e 9 31
e 9 32
e 10 12
e 10 13
e 10 15
e 10 16
e 10 18
e 10 20
e 10 23
e 10 27
e 10 28
e 10 30
e 11 12
e 11 13
e 11 14
e 11 15
e 11 16
e 11 20
e 11 21
e 11 22
e 11 24
e 11 26
e 11 27
e 11 28
e 11 31
e 11 33
e 11 34
e 12 14
e 12 16
e 12 18
e 12 20
e 12 21
e 12 22
e 12 23
e 12 24
e 12 25
e 12 28
e 12 29
e 12 30
e 13 21
e 13 23
e 13 24
e 13 25
e 13 26
e 13 31
e 13 32
e 13 33
e 14 16
e 14 18
e 14 19
e 14 27
e 14 31
e 14 32
e 14 34
e 15 16
e 15 17
e 15 18
e 15 19
e 15 21
e 15 22
e 15 23
e 15 24
e 15 27
e 15 29
e 15 30
e 15 34
e 16 17
e 16 20
e 16 24
e 16 25
e 16 29
e 16 32
e 17 18
e 17 19
e 17 22
e 17 23
e 17 26
e 17 28
e 17 31
e 17 32
e 18 19
e 18 20
e 18 24
e 18 25
e 18 27
e 18 28
e 18 29
e 18 31
e 18 32
e 18 34
e 19 22
e 19 24
e 19 25
e 19 27
e 19 29
e 19 30
e 19 31
e 19 32
e 19 33
e 20 21
e 20 29
e 20 30
e 20 31
e 21 27
e 21 28
e 21 29
e 21 33
e 21 34
e 22 23
e 22 26
e 22 28
e 22 29
e 22 31
e 22 34
e 23 24
e 23 25
e 23 26
e 23 27
e 23 31
e 24 26
e 24 27
e 24 28
e 25 26
e 25 27
e 25 28
e 25 31
e 25 32
e 25 33
e 26 28
e 26 30
e 26 32
e 26 33
e 27 29
e 27 31
e 27 33
e 28 30
e 28 34
e 29 31
e 29 33
e 29 34
e 30 34
e 31 33
e 32 34
e 33 34
